
Gurobi 7.0.2 (win64) logging started 06/24/20 00:45:32

Read LP format model from file C:\George\Professor\Pesquisa\Orientacoes em Pos-graduacao\2019 MSC PPGCC Guilherme Figueroa\Fanjuls Solver\Results\I_100_20_S_1-124_6_MTZ_KB.lp
Reading time = 1.11 seconds
: 14240 rows, 204101 columns, 832020 nonzeros
Optimize a model with 14240 rows, 204101 columns and 832020 nonzeros
Variable types: 2101 continuous, 202000 integer (202000 binary)
Coefficient statistics:
  Matrix range     [1e+00, 1e+02]
  Objective range  [1e+00, 1e+00]
  Bounds range     [1e+00, 1e+00]
  RHS range        [1e+00, 1e+02]
Presolve time: 1.59s
Presolved: 14240 rows, 204101 columns, 832020 nonzeros
Variable types: 100 continuous, 204001 integer (204000 binary)
Found heuristic solution: objective 10842.000000
Found heuristic solution: objective 10670.000000

Root simplex log...

Iteration    Objective       Primal Inf.    Dual Inf.      Time
    3613    8.2547965e-05   4.734690e+03   0.000000e+00      5s
    7690    3.4615632e-04   2.575725e+03   0.000000e+00     10s
   18013    3.7092061e+01   6.047576e+02   0.000000e+00     15s
   23267    6.0401812e+01   4.465178e+02   0.000000e+00     20s
   24848    6.1214234e+01   0.000000e+00   0.000000e+00     24s

Root relaxation: objective 6.121423e+01, 24848 iterations, 20.85 seconds

    Nodes    |    Current Node    |     Objective Bounds      |     Work
 Expl Unexpl |  Obj  Depth IntInf | Incumbent    BestBd   Gap | It/Node Time

     0     0   61.21423    0  582 10670.0000   61.21423  99.4%     -   24s
H    0     0                     218.0000000   61.21423  71.9%     -   59s
     0     0   61.33358    0  590  218.00000   61.33358  71.9%     -  103s
     0     0   61.33358    0  590  218.00000   61.33358  71.9%     -  104s
     0     0   61.33358    0  590  218.00000   61.33358  71.9%     -  122s
     0     0   61.33358    0  590  218.00000   61.33358  71.9%     -  123s
     0     0   61.33358    0  590  218.00000   61.33358  71.9%     -  142s
     0     0   62.00000    0  366  218.00000   62.00000  71.6%     -  428s
     0     0   62.00000    0  366  218.00000   62.00000  71.6%     -  465s
     0     2   62.00000    0  366  218.00000   62.00000  71.6%     -  540s
     1     3   62.00000    1  582  218.00000   62.00000  71.6%  4497  571s
     2     4   62.00000    1  532  218.00000   62.00000  71.6%  2569  589s
     3     5   62.00000    2  592  218.00000   62.00000  71.6%  1924  602s
     4     6   62.00000    2  541  218.00000   62.00000  71.6%  1712  612s
     5     7   62.00000    3  609  218.00000   62.00000  71.6%  1526  630s
     6     8   62.00000    3  548  218.00000   62.00000  71.6%  1523  650s
     7     9   62.00000    4  567  218.00000   62.00000  71.6%  1377  656s
     8    10   62.00000    4  631  218.00000   62.00000  71.6%  1277  671s
     9    11   62.00000    5  604  218.00000   62.00000  71.6%  1205  682s
    10    12   62.00000    5  541  218.00000   62.00000  71.6%  1161  689s
    11    13   62.00000    6  582  218.00000   62.00000  71.6%  1100  695s
    12    13   62.06103    6  569  218.00000   62.00000  71.6%  1101  708s
    13    13   62.45840    7  524  218.00000   62.00000  71.6%  1219  726s
    15    14   62.00933    8  550  218.00000   62.00000  71.6%  1177  743s
    16    15   62.00000    8  579  218.00000   62.00000  71.6%  1319  767s
    17    16   62.00000    9  577  218.00000   62.00000  71.6%  1277  772s
    18    16   62.46265    9  524  218.00000   62.00000  71.6%  1326  790s
    19    16   62.03762   10  571  218.00000   62.00000  71.6%  1298  798s
    20    16   62.29811   10  516  218.00000   62.00000  71.6%  1337  819s
    21    17   63.00000   11  570  218.00000   62.00000  71.6%  1489  868s
    22    18   63.00000   12  550  218.00000   62.00000  71.6%  1441  884s
    23    19   63.00000   13  548  218.00000   62.00000  71.6%  1527  921s
    24    20   63.00000   14  536  218.00000   62.00000  71.6%  1489  930s
    25    21   63.00000   14  571  218.00000   62.00000  71.6%  1453  941s
    26    22   63.00000   15  564  218.00000   62.00000  71.6%  1423  949s
    27    23   63.00000   16  554  218.00000   62.00000  71.6%  1395 1003s
    28    23   63.62488   16  521  218.00000   62.00000  71.6%  1435 1018s
    29    24   63.00000   17  522  218.00000   62.00000  71.6%  1406 1022s
    30    24   64.78734   17  486  218.00000   62.00000  71.6%  1550 1052s
    31    24   63.05067   18  466  218.00000   62.00000  71.6%  1517 1055s
    32    24   63.09387   18  514  218.00000   62.00000  71.6%  1524 1068s
    33    25   64.00000   19  567  218.00000   62.00000  71.6%  1679 1118s
    34    26   64.00000   20  584  218.00000   62.00000  71.6%  1647 1133s
    35    27   64.00000   21  569  218.00000   62.00000  71.6%  1622 1147s
    36    28   64.00000   22  563  218.00000   62.00000  71.6%  1586 1156s
    37    28   64.51093   22  462  218.00000   62.00000  71.6%  1641 1182s
    38    29   64.00000   23  560  218.00000   62.00000  71.6%  1622 1192s
    39    30   64.00000   24  538  218.00000   62.00000  71.6%  1609 1200s
    40    31   64.00000   25  572  218.00000   62.00000  71.6%  1584 1207s
    41    31   64.14354   25  450  218.00000   62.00000  71.6%  1590 1219s
    42    32   64.00000   26  579  218.00000   62.00000  71.6%  1566 1226s
    43    33   64.00000   27  573  218.00000   62.00000  71.6%  1539 1230s
    45    34   64.02760   28  427  218.00000   62.00000  71.6%  1566 1250s
    46    35   64.00000   29  588  218.00000   62.00000  71.6%  1542 1255s
    47    35   64.60106   29  428  218.00000   62.00000  71.6%  1559 1269s
    48    36   64.00000   30  574  218.00000   62.00000  71.6%  1538 1272s
    50    38   64.00000   32  567  218.00000   62.00000  71.6%  1490 1276s
    51    38   64.23574   32  389  218.00000   62.00000  71.6%  1487 1281s
    53    40   64.00000   34  587  218.00000   62.00000  71.6%  1442 1286s
    54    41   64.00000   35  579  218.00000   62.00000  71.6%  1420 1333s
    55    41   64.49100   35  420  218.00000   62.00000  71.6%  1433 1367s
    56    41   64.55842   36  464  218.00000   62.00000  71.6%  1497 1386s
    57    42   64.00000   36  575  218.00000   62.00000  71.6%  1482 1390s
    59    44   64.00000   38  544  218.00000   62.00000  71.6%  1453 1396s
    60    45   64.00000   38  473  218.00000   62.00000  71.6%  1449 1403s
    62    46   64.09705   40  417  218.00000   62.00000  71.6%  1414 1407s
    64    47   65.00000   41  465  218.00000   62.00000  71.6%  1440 1437s
    65    48   65.00000   42  471  218.00000   62.00000  71.6%  1424 1449s
    66    49   65.00000   43  482  218.00000   62.00000  71.6%  1454 1469s
    67    50   65.00000   43  493  218.00000   62.00000  71.6%  1441 1482s
    68    51   65.00000   44  512  218.00000   62.00000  71.6%  1428 1491s
    69    51   65.76279   44  393  218.00000   62.00000  71.6%  1461 1507s
    70    52   65.00000   45  523  218.00000   62.00000  71.6%  1450 1514s
    71    52   65.04964   45  408  218.00000   62.00000  71.6%  1476 1532s
    72    53   65.00000   46  524  218.00000   62.00000  71.6%  1469 1539s
    73    54   65.00000   47  518  218.00000   62.00000  71.6%  1452 1542s
    74    54   65.94152   47  482  218.00000   62.00000  71.6%  1492 1558s
    75    55   65.00000   48  531  218.00000   62.00000  71.6%  1476 1563s
    76    56   65.00000   49  537  218.00000   62.00000  71.6%  1473 1572s
    77    57   65.00000   49  501  218.00000   62.00000  71.6%  1495 1588s
    78    58   65.00000   50  514  218.00000   62.00000  71.6%  1477 1592s
    79    58   65.40478   50  400  218.00000   62.00000  71.6%  1487 1602s
    80    59   65.00000   51  539  218.00000   62.00000  71.6%  1478 1614s
H   81    58                     162.0000000   62.00000  61.7%  1460 1639s
    81    60   65.00000   52  522  162.00000   62.00000  61.7%  1463 1642s
    82    60   65.16108   52  354  162.00000   62.00000  61.7%  1480 1654s
    83    61   65.00000   53  511  162.00000   62.00000  61.7%  1536 1694s
    84    62   65.00000   54  531  162.00000   62.00000  61.7%  1520 1706s
    85    63   65.00000   55  504  162.00000   62.00000  61.7%  1510 1713s
    86    64   65.00000   56  503  162.00000   62.00000  61.7%  1502 1716s
    87    64   65.41247   56  366  162.00000   62.00000  61.7%  1533 1735s
    90    67   65.00000   59  518  162.00000   62.00000  61.7%  1489 1740s
    92    69   65.00000   60  478  162.00000   62.00000  61.7%  1494 1761s
    93    70   65.00000   61  452  162.00000   62.00000  61.7%  1487 1765s

Cutting planes:
  Learned: 1
  MIR: 46

Explored 94 nodes (198309 simplex iterations) in 1800.04 seconds
Thread count was 1 (of 12 available processors)

Solution count 4: 162 218 10670 10842 
Pool objective bound 62

Time limit reached
Best objective 1.620000000000e+02, best bound 6.200000000000e+01, gap 61.7284%
